p cnf 430 1488
-191 -136 0
-191 -179 0
-191 17 0
-191 -161 0
-191 64 0
191 136 179 -17 161 -64 0
-192 -145 0
-192 189 0
-192 50 0
-192 12 0
-192 31 0
192 145 -189 -50 -12 -31 0
-193 -90 0
-193 99 0
-193 -93 0
-193 -76 0
-193 161 0
193 90 -99 93 76 -161 0
-194 -163 0
-194 -27 0
-194 99 0
-194 -81 0
-194 -51 0
194 163 27 -99 81 51 0
-195 -136 0
-195 175 0
-195 -41 0
-195 -72 0
-195 -37 0
195 136 -175 41 72 37 0
191 192 193 194 195 0
-196 36 0
-196 140 0
-196 10 0
-196 173 0
-196 2 0
196 -36 -140 -10 -173 -2 0
-197 -18 0
-197 11 0
-197 -7 0
-197 44 0
-197 -116 0
197 18 -11 7 -44 116 0
-198 37 0
-198 -129 0
-198 124 0
-198 -112 0
-198 -20 0
198 -37 129 -124 112 20 0
-199 -38 0
-199 -152 0
-199 95 0
-199 -151 0
-199 171 0
199 38 152 -95 151 -171 0
-200 -28 0
-200 187 0
-200 13 0
-200 -101 0
-200 172 0
200 28 -187 -13 101 -172 0
196 197 198 199 200 0
-201 96 0
-201 35 0
-201 20 0
-201 117 0
-201 39 0
201 -96 -35 -20 -117 -39 0
-202 -137 0
-202 99 0
-202 -155 0
-202 120 0
-202 -25 0
202 137 -99 155 -120 25 0
-203 -35 0
-203 -157 0
-203 -31 0
-203 -92 0
-203 169 0
203 35 157 31 92 -169 0
-204 116 0
-204 -59 0
-204 -57 0
-204 -188 0
-204 83 0
204 -116 59 57 188 -83 0
-205 -142 0
-205 -98 0
-205 -180 0
-205 -21 0
-205 -124 0
205 142 98 180 21 124 0
201 202 203 204 205 0
-206 -153 0
-206 30 0
-206 50 0
-206 -135 0
-206 -106 0
206 153 -30 -50 135 106 0
-207 -63 0
-207 142 0
-207 -133 0
-207 -56 0
-207 92 0
207 63 -142 133 56 -92 0
-208 -106 0
-208 -98 0
-208 76 0
-208 9 0
-208 84 0
208 106 98 -76 -9 -84 0
-209 -8 0
-209 -20 0
-209 -125 0
-209 90 0
-209 166 0
209 8 20 125 -90 -166 0
-210 -158 0
-210 52 0
-210 -61 0
-210 177 0
-210 187 0
210 158 -52 61 -177 -187 0
206 207 208 209 210 0
-211 -154 0
-211 -12 0
-211 -167 0
-211 -59 0
-211 -125 0
211 154 12 167 59 125 0
-212 -164 0
-212 -75 0
-212 -60 0
-212 -88 0
-212 47 0
212 164 75 60 88 -47 0
-213 47 0
-213 -84 0
-213 -13 0
-213 12 0
-213 60 0
213 -47 84 13 -12 -60 0
-214 -141 0
-214 -116 0
-214 40 0
-214 157 0
-214 175 0
214 141 116 -40 -157 -175 0
-215 -72 0
-215 -162 0
-215 -122 0
-215 -49 0
-215 68 0
215 72 162 122 49 -68 0
211 212 213 214 215 0
-216 72 0
-216 172 0
-216 25 0
-216 104 0
-216 -87 0
216 -72 -172 -25 -104 87 0
-217 39 0
-217 -31 0
-217 -186 0
-217 26 0
-217 94 0
217 -39 31 186 -26 -94 0
-218 91 0
-218 -172 0
-218 -176 0
-218 -124 0
-218 -161 0
218 -91 172 176 124 161 0
-219 -139 0
-219 14 0
-219 -35 0
-219 -31 0
-219 5 0
219 139 -14 35 31 -5 0
-220 184 0
-220 -186 0
-220 2 0
-220 -143 0
-220 30 0
220 -184 186 -2 143 -30 0
216 217 218 219 220 0
-221 -146 0
-221 -172 0
-221 183 0
-221 -126 0
-221 -128 0
221 146 172 -183 126 128 0
-222 -85 0
-222 -89 0
-222 -75 0
-222 -78 0
-222 -106 0
222 85 89 75 78 106 0
-223 -57 0
-223 55 0
-223 -44 0
-223 45 0
-223 -66 0
223 57 -55 44 -45 66 0
-224 -148 0
-224 34 0
-224 -172 0
-224 -2 0
-224 -12 0
224 148 -34 172 2 12 0
-225 -72 0
-225 -95 0
-225 137 0
-225 187 0
-225 -35 0
225 72 95 -137 -187 35 0
221 222 223 224 225 0
-226 -187 0
-226 17 0
-226 -111 0
-226 -27 0
-226 130 0
226 187 -17 111 27 -130 0
-227 -114 0
-227 -92 0
-227 57 0
-227 -34 0
-227 -42 0
227 114 92 -57 34 42 0
-228 -40 0
-228 -141 0
-228 100 0
-228 150 0
-228 149 0
228 40 141 -100 -150 -149 0
-229 -85 0
-229 119 0
-229 166 0
-229 80 0
-229 77 0
229 85 -119 -166 -80 -77 0
-230 -93 0
-230 -161 0
-230 109 0
-230 156 0
-230 -87 0
230 93 161 -109 -156 87 0
226 227 228 229 230 0
-231 44 0
-231 -148 0
-231 85 0
-231 -140 0
-231 -164 0
231 -44 148 -85 140 164 0
-232 -166 0
-232 -167 0
-232 59 0
-232 -41 0
-232 -181 0
232 166 167 -59 41 181 0
-233 152 0
-233 -67 0
-233 -89 0
-233 123 0
-233 156 0
233 -152 67 89 -123 -156 0
-234 -39 0
-234 -154 0
-234 -151 0
-234 13 0
-234 172 0
234 39 154 151 -13 -172 0
-235 76 0
-235 -84 0
-235 -57 0
-235 111 0
-235 -93 0
235 -76 84 57 -111 93 0
231 232 233 234 235 0
-236 143 0
-236 -171 0
-236 -124 0
-236 182 0
-236 131 0
236 -143 171 124 -182 -131 0
-237 88 0
-237 -5 0
-237 -109 0
-237 14 0
-237 -36 0
237 -88 5 109 -14 36 0
-238 148 0
-238 137 0
-238 25 0
-238 190 0
-238 -91 0
238 -148 -137 -25 -190 91 0
-239 80 0
-239 -120 0
-239 189 0
-239 -16 0
-239 164 0
239 -80 120 -189 16 -164 0
-240 51 0
-240 49 0
-240 -94 0
-240 79 0
-240 -122 0
240 -51 -49 94 -79 122 0
236 237 238 239 240 0
-241 147 0
-241 63 0
-241 -122 0
-241 104 0
-241 -92 0
241 -147 -63 122 -104 92 0
-242 130 0
-242 -18 0
-242 31 0
-242 99 0
-242 123 0
242 -130 18 -31 -99 -123 0
-243 -117 0
-243 -73 0
-243 84 0
-243 20 0
-243 -186 0
243 117 73 -84 -20 186 0
-244 -104 0
-244 95 0
-244 -157 0
-244 40 0
-244 144 0
244 104 -95 157 -40 -144 0
-245 106 0
-245 166 0
-245 142 0
-245 -145 0
-245 -105 0
245 -106 -166 -142 145 105 0
241 242 243 244 245 0
-246 -137 0
-246 -128 0
-246 96 0
-246 -181 0
-246 -89 0
246 137 128 -96 181 89 0
-247 -175 0
-247 92 0
-247 149 0
-247 59 0
-247 -90 0
247 175 -92 -149 -59 90 0
-248 1 0
-248 81 0
-248 -64 0
-248 89 0
-248 -133 0
248 -1 -81 64 -89 133 0
-249 79 0
-249 -101 0
-249 67 0
-249 9 0
-249 63 0
249 -79 101 -67 -9 -63 0
-250 -171 0
-250 96 0
-250 -155 0
-250 -62 0
-250 77 0
250 171 -96 155 62 -77 0
246 247 248 249 250 0
-251 -161 0
-251 160 0
-251 26 0
-251 -22 0
-251 34 0
251 161 -160 -26 22 -34 0
-252 74 0
-252 130 0
-252 -16 0
-252 10 0
-252 -63 0
252 -74 -130 16 -10 63 0
-253 -183 0
-253 -24 0
-253 -44 0
-253 18 0
-253 -110 0
253 183 24 44 -18 110 0
-254 -112 0
-254 61 0
-254 30 0
-254 -152 0
-254 143 0
254 112 -61 -30 152 -143 0
-255 115 0
-255 -167 0
-255 -44 0
-255 174 0
-255 79 0
255 -115 167 44 -174 -79 0
251 252 253 254 255 0
-256 171 0
-256 58 0
-256 72 0
-256 -110 0
-256 67 0
256 -171 -58 -72 110 -67 0
-257 -83 0
-257 157 0
-257 40 0
-257 -173 0
-257 69 0
257 83 -157 -40 173 -69 0
-258 22 0
-258 -33 0
-258 54 0
-258 80 0
-258 39 0
258 -22 33 -54 -80 -39 0
-259 -6 0
-259 176 0
-259 40 0
-259 48 0
-259 121 0
259 6 -176 -40 -48 -121 0
-260 -34 0
-260 91 0
-260 -74 0
-260 8 0
-260 52 0
260 34 -91 74 -8 -52 0
256 257 258 259 260 0
-261 -141 0
-261 -56 0
-261 26 0
-261 -52 0
-261 -96 0
261 141 56 -26 52 96 0
-262 -88 0
-262 81 0
-262 -21 0
-262 -40 0
-262 -180 0
262 88 -81 21 40 180 0
-263 -33 0
-263 163 0
-263 -85 0
-263 -92 0
-263 -4 0
263 33 -163 85 92 4 0
-264 162 0
-264 100 0
-264 101 0
-264 -64 0
-264 97 0
264 -162 -100 -101 64 -97 0
-265 104 0
-265 108 0
-265 -70 0
-265 44 0
-265 50 0
265 -104 -108 70 -44 -50 0
261 262 263 264 265 0
-266 165 0
-266 84 0
-266 101 0
-266 119 0
-266 42 0
266 -165 -84 -101 -119 -42 0
-267 80 0
-267 -14 0
-267 144 0
-267 -1 0
-267 117 0
267 -80 14 -144 1 -117 0
-268 -174 0
-268 130 0
-268 -34 0
-268 -121 0
-268 132 0
268 174 -130 34 121 -132 0
-269 62 0
-269 121 0
-269 68 0
-269 -111 0
-269 140 0
269 -62 -121 -68 111 -140 0
-270 -128 0
-270 -188 0
-270 124 0
-270 80 0
-270 -168 0
270 128 188 -124 -80 168 0
266 267 268 269 270 0
-271 -129 0
-271 160 0
-271 -110 0
-271 -65 0
-271 178 0
271 129 -160 110 65 -178 0
-272 3 0
-272 133 0
-272 -74 0
-272 29 0
-272 72 0
272 -3 -133 74 -29 -72 0
-273 71 0
-273 64 0
-273 39 0
-273 31 0
-273 -143 0
273 -71 -64 -39 -31 143 0
-274 -31 0
-274 -148 0
-274 84 0
-274 -87 0
-274 49 0
274 31 148 -84 87 -49 0
-275 190 0
-275 -40 0
-275 -88 0
-275 170 0
-275 2 0
275 -190 40 88 -170 -2 0
271 272 273 274 275 0
-276 111 0
-276 -102 0
-276 -30 0
-276 -21 0
-276 55 0
276 -111 102 30 21 -55 0
-277 186 0
-277 20 0
-277 26 0
-277 85 0
-277 -172 0
277 -186 -20 -26 -85 172 0
-278 94 0
-278 -132 0
-278 39 0
-278 -175 0
-278 -180 0
278 -94 132 -39 175 180 0
-279 115 0
-279 132 0
-279 -21 0
-279 96 0
-279 134 0
279 -115 -132 21 -96 -134 0
-280 -9 0
-280 4 0
-280 69 0
-280 -90 0
-280 -137 0
280 9 -4 -69 90 137 0
276 277 278 279 280 0
-281 127 0
-281 68 0
-281 -76 0
-281 4 0
-281 122 0
281 -127 -68 76 -4 -122 0
-282 73 0
-282 -180 0
-282 172 0
-282 -20 0
-282 -13 0
282 -73 180 -172 20 13 0
-283 -58 0
-283 -171 0
-283 34 0
-283 -81 0
-283 107 0
283 58 171 -34 81 -107 0
-284 -25 0
-284 -10 0
-284 -130 0
-284 177 0
-284 -101 0
284 25 10 130 -177 101 0
-285 -119 0
-285 -93 0
-285 -71 0
-285 57 0
-285 39 0
285 119 93 71 -57 -39 0
281 282 283 284 285 0
-286 65 0
-286 -123 0
-286 58 0
-286 -81 0
-286 -160 0
286 -65 123 -58 81 160 0
-287 108 0
-287 -75 0
-287 31 0
-287 -140 0
-287 -153 0
287 -108 75 -31 140 153 0
-288 36 0
-288 -60 0
-288 158 0
-288 -65 0
-288 -127 0
288 -36 60 -158 65 127 0
-289 -52 0
-289 24 0
-289 -82 0
-289 -179 0
-289 -71 0
289 52 -24 82 179 71 0
-290 13 0
-290 -1 0
-290 44 0
-290 -26 0
-290 -18 0
290 -13 1 -44 26 18 0
286 287 288 289 290 0
-291 39 0
-291 -181 0
-291 144 0
-291 73 0
-291 -139 0
291 -39 181 -144 -73 139 0
-292 -93 0
-292 -61 0
-292 -81 0
-292 34 0
-292 95 0
292 93 61 81 -34 -95 0
-293 138 0
-293 66 0
-293 -130 0
-293 41 0
-293 -121 0
293 -138 -66 130 -41 121 0
-294 -107 0
-294 70 0
-294 136 0
-294 -93 0
-294 83 0
294 107 -70 -136 93 -83 0
-295 -30 0
-295 172 0
-295 10 0
-295 35 0
-295 2 0
295 30 -172 -10 -35 -2 0
291 292 293 294 295 0
-296 158 0
-296 -157 0
-296 -160 0
-296 53 0
-296 112 0
296 -158 157 160 -53 -112 0
-297 -4 0
-297 172 0
-297 12 0
-297 -61 0
-297 44 0
297 4 -172 -12 61 -44 0
-298 -62 0
-298 -96 0
-298 -40 0
-298 39 0
-298 104 0
298 62 96 40 -39 -104 0
-299 109 0
-299 -63 0
-299 -47 0
-299 39 0
-299 168 0
299 -109 63 47 -39 -168 0
-300 -50 0
-300 -183 0
-300 174 0
-300 -8 0
-300 20 0
300 50 183 -174 8 -20 0
296 297 298 299 300 0
-301 159 0
-301 -160 0
-301 110 0
-301 42 0
-301 -47 0
301 -159 160 -110 -42 47 0
-302 -100 0
-302 -150 0
-302 178 0
-302 -40 0
-302 -46 0
302 100 150 -178 40 46 0
-303 189 0
-303 -169 0
-303 131 0
-303 -89 0
-303 -48 0
303 -189 169 -131 89 48 0
-304 -172 0
-304 -177 0
-304 -99 0
-304 -171 0
-304 63 0
304 172 177 99 171 -63 0
-305 159 0
-305 -169 0
-305 -153 0
-305 -125 0
-305 140 0
305 -159 169 153 125 -140 0
301 302 303 304 305 0
-306 38 0
-306 186 0
-306 -76 0
-306 -102 0
-306 157 0
306 -38 -186 76 102 -157 0
-307 6 0
-307 -147 0
-307 -110 0
-307 -40 0
-307 -187 0
307 -6 147 110 40 187 0
-308 -118 0
-308 -54 0
-308 50 0
-308 -53 0
-308 14 0
308 118 54 -50 53 -14 0
-309 66 0
-309 34 0
-309 152 0
-309 -41 0
-309 31 0
309 -66 -34 -152 41 -31 0
-310 -181 0
-310 -163 0
-310 -60 0
-310 115 0
-310 6 0
310 181 163 60 -115 -6 0
306 307 308 309 310 0
-311 -148 0
-311 183 0
-311 -136 0
-311 -100 0
-311 -26 0
311 148 -183 136 100 26 0
-312 15 0
-312 -23 0
-312 -164 0
-312 -126 0
-312 141 0
312 -15 23 164 126 -141 0
-313 94 0
-313 109 0
-313 -174 0
-313 129 0
-313 -101 0
313 -94 -109 174 -129 101 0
-314 -41 0
-314 -40 0
-314 -143 0
-314 -118 0
-314 96 0
314 41 40 143 118 -96 0
-315 -149 0
-315 -44 0
-315 -89 0
-315 12 0
-315 -26 0
315 149 44 89 -12 26 0
311 312 313 314 315 0
-316 -4 0
-316 -74 0
-316 -166 0
-316 -101 0
-316 -13 0
316 4 74 166 101 13 0
-317 115 0
-317 -92 0
-317 -159 0
-317 -88 0
-317 -111 0
317 -115 92 159 88 111 0
-318 -157 0
-318 -90 0
-318 44 0
-318 -117 0
-318 145 0
318 157 90 -44 117 -145 0
-319 -86 0
-319 -166 0
-319 76 0
-319 172 0
-319 -134 0
319 86 166 -76 -172 134 0
-320 -164 0
-320 -59 0
-320 -7 0
-320 -150 0
-320 142 0
320 164 59 7 150 -142 0
316 317 318 319 320 0
-321 -80 0
-321 -108 0
-321 -139 0
-321 -13 0
-321 -87 0
321 80 108 139 13 87 0
-322 -34 0
-322 179 0
-322 29 0
-322 46 0
-322 122 0
322 34 -179 -29 -46 -122 0
-323 -34 0
-323 3 0
-323 -43 0
-323 -59 0
-323 -169 0
323 34 -3 43 59 169 0
-324 -67 0
-324 -14 0
-324 62 0
-324 11 0
-324 -140 0
324 67 14 -62 -11 140 0
-325 186 0
-325 139 0
-325 -162 0
-325 103 0
-325 -185 0
325 -186 -139 162 -103 185 0
321 322 323 324 325 0
-326 -185 0
-326 -147 0
-326 -78 0
-326 118 0
-326 -152 0
326 185 147 78 -118 152 0
-327 -186 0
-327 5 0
-327 174 0
-327 -43 0
-327 -59 0
327 186 -5 -174 43 59 0
-328 -5 0
-328 141 0
-328 122 0
-328 -182 0
-328 92 0
328 5 -141 -122 182 -92 0
-329 -166 0
-329 -107 0
-329 176 0
-329 -63 0
-329 -42 0
329 166 107 -176 63 42 0
-330 7 0
-330 61 0
-330 -82 0
-330 22 0
-330 164 0
330 -7 -61 82 -22 -164 0
326 327 328 329 330 0
-331 -68 0
-331 -40 0
-331 -169 0
-331 170 0
-331 -131 0
331 68 40 169 -170 131 0
-332 -51 0
-332 -179 0
-332 -98 0
-332 78 0
-332 129 0
332 51 179 98 -78 -129 0
-333 -163 0
-333 107 0
-333 -5 0
-333 -74 0
-333 -172 0
333 163 -107 5 74 172 0
-334 106 0
-334 -43 0
-334 58 0
-334 -128 0
-334 46 0
334 -106 43 -58 128 -46 0
-335 119 0
-335 4 0
-335 167 0
-335 146 0
-335 151 0
335 -119 -4 -167 -146 -151 0
331 332 333 334 335 0
-336 -9 0
-336 -169 0
-336 146 0
-336 90 0
-336 10 0
336 9 169 -146 -90 -10 0
-337 83 0
-337 -115 0
-337 42 0
-337 154 0
-337 -155 0
337 -83 115 -42 -154 155 0
-338 -176 0
-338 -118 0
-338 184 0
-338 -144 0
-338 105 0
338 176 118 -184 144 -105 0
-339 -77 0
-339 137 0
-339 179 0
-339 -83 0
-339 -140 0
339 77 -137 -179 83 140 0
-340 106 0
-340 42 0
-340 -173 0
-340 -117 0
-340 -5 0
340 -106 -42 173 117 5 0
336 337 338 339 340 0
-341 -47 0
-341 123 0
-341 -2 0
-341 51 0
-341 183 0
341 47 -123 2 -51 -183 0
-342 -28 0
-342 104 0
-342 76 0
-342 38 0
-342 159 0
342 28 -104 -76 -38 -159 0
-343 49 0
-343 70 0
-343 82 0
-343 5 0
-343 -64 0
343 -49 -70 -82 -5 64 0
-344 -155 0
-344 -17 0
-344 -52 0
-344 137 0
-344 176 0
344 155 17 52 -137 -176 0
-345 -4 0
-345 -121 0
-345 -56 0
-345 106 0
-345 -143 0
345 4 121 56 -106 143 0
341 342 343 344 345 0
-346 -151 0
-346 55 0
-346 171 0
-346 78 0
-346 8 0
346 151 -55 -171 -78 -8 0
-347 -91 0
-347 142 0
-347 114 0
-347 -73 0
-347 -40 0
347 91 -142 -114 73 40 0
-348 142 0
-348 20 0
-348 70 0
-348 -78 0
-348 -130 0
348 -142 -20 -70 78 130 0
-349 170 0
-349 -188 0
-349 -49 0
-349 -134 0
-349 -167 0
349 -170 188 49 134 167 0
-350 136 0
-350 -177 0
-350 21 0
-350 -60 0
-350 98 0
350 -136 177 -21 60 -98 0
346 347 348 349 350 0
-351 -165 0
-351 -185 0
-351 2 0
-351 -111 0
-351 79 0
351 165 185 -2 111 -79 0
-352 119 0
-352 -60 0
-352 -113 0
-352 -147 0
-352 6 0
352 -119 60 113 147 -6 0
-353 140 0
-353 -154 0
-353 -166 0
-353 -151 0
-353 -43 0
353 -140 154 166 151 43 0
-354 -100 0
-354 185 0
-354 -164 0
-354 113 0
-354 -20 0
354 100 -185 164 -113 20 0
-355 153 0
-355 -147 0
-355 -171 0
-355 -62 0
-355 -140 0
355 -153 147 171 62 140 0
351 352 353 354 355 0
-356 143 0
-356 17 0
-356 -64 0
-356 13 0
-356 92 0
356 -143 -17 64 -13 -92 0
-357 -42 0
-357 -47 0
-357 78 0
-357 -61 0
-357 -172 0
357 42 47 -78 61 172 0
-358 -65 0
-358 -157 0
-358 180 0
-358 -66 0
-358 135 0
358 65 157 -180 66 -135 0
-359 -75 0
-359 -151 0
-359 165 0
-359 78 0
-359 -148 0
359 75 151 -165 -78 148 0
-360 57 0
-360 -53 0
-360 -161 0
-360 -9 0
-360 134 0
360 -57 53 161 9 -134 0
356 357 358 359 360 0
-361 -140 0
-361 131 0
-361 178 0
-361 95 0
-361 -88 0
361 140 -131 -178 -95 88 0
-362 147 0
-362 -16 0
-362 99 0
-362 34 0
-362 105 0
362 -147 16 -99 -34 -105 0
-363 1 0
-363 -141 0
-363 130 0
-363 58 0
-363 -48 0
363 -1 141 -130 -58 48 0
-364 90 0
-364 -38 0
-364 164 0
-364 -184 0
-364 -133 0
364 -90 38 -164 184 133 0
-365 140 0
-365 113 0
-365 -188 0
-365 80 0
-365 157 0
365 -140 -113 188 -80 -157 0
361 362 363 364 365 0
-366 -103 0
-366 -1 0
-366 -104 0
-366 98 0
-366 160 0
366 103 1 104 -98 -160 0
-367 -49 0
-367 26 0
-367 -93 0
-367 12 0
-367 136 0
367 49 -26 93 -12 -136 0
-368 72 0
-368 87 0
-368 -1 0
-368 188 0
-368 160 0
368 -72 -87 1 -188 -160 0
-369 166 0
-369 63 0
-369 -102 0
-369 75 0
-369 173 0
369 -166 -63 102 -75 -173 0
-370 119 0
-370 -12 0
-370 187 0
-370 90 0
-370 30 0
370 -119 12 -187 -90 -30 0
366 367 368 369 370 0
-371 72 0
-371 135 0
-371 169 0
-371 -83 0
-371 96 0
371 -72 -135 -169 83 -96 0
-372 122 0
-372 94 0
-372 -77 0
-372 71 0
-372 72 0
372 -122 -94 77 -71 -72 0
-373 62 0
-373 47 0
-373 11 0
-373 127 0
-373 -184 0
373 -62 -47 -11 -127 184 0
-374 119 0
-374 5 0
-374 155 0
-374 144 0
-374 39 0
374 -119 -5 -155 -144 -39 0
-375 10 0
-375 -123 0
-375 87 0
-375 35 0
-375 7 0
375 -10 123 -87 -35 -7 0
371 372 373 374 375 0
-376 -15 0
-376 102 0
-376 -60 0
-376 -2 0
-376 -14 0
376 15 -102 60 2 14 0
-377 -102 0
-377 -84 0
-377 127 0
-377 -122 0
-377 -81 0
377 102 84 -127 122 81 0
-378 -14 0
-378 44 0
-378 130 0
-378 47 0
-378 108 0
378 14 -44 -130 -47 -108 0
-379 -166 0
-379 -48 0
-379 -190 0
-379 146 0
-379 81 0
379 166 48 190 -146 -81 0
-380 -72 0
-380 -144 0
-380 86 0
-380 105 0
-380 90 0
380 72 144 -86 -105 -90 0
376 377 378 379 380 0
-381 146 0
-381 -133 0
-381 62 0
-381 -108 0
-381 -157 0
381 -146 133 -62 108 157 0
-382 -39 0
-382 -135 0
-382 -185 0
-382 125 0
-382 -17 0
382 39 135 185 -125 17 0
-383 -174 0
-383 -33 0
-383 -11 0
-383 92 0
-383 -177 0
383 174 33 11 -92 177 0
-384 58 0
-384 153 0
-384 162 0
-384 8 0
-384 134 0
384 -58 -153 -162 -8 -134 0
-385 32 0
-385 -140 0
-385 11 0
-385 -50 0
-385 82 0
385 -32 140 -11 50 -82 0
381 382 383 384 385 0
-386 57 0
-386 17 0
-386 -13 0
-386 29 0
-386 184 0
386 -57 -17 13 -29 -184 0
-387 131 0
-387 155 0
-387 -23 0
-387 103 0
-387 -126 0
387 -131 -155 23 -103 126 0
-388 19 0
-388 -147 0
-388 -7 0
-388 136 0
-388 -74 0
388 -19 147 7 -136 74 0
-389 132 0
-389 47 0
-389 28 0
-389 -67 0
-389 -171 0
389 -132 -47 -28 67 171 0
-390 79 0
-390 -75 0
-390 37 0
-390 -58 0
-390 161 0
390 -79 75 -37 58 -161 0
386 387 388 389 390 0
-391 -85 0
-391 -72 0
-391 9 0
-391 177 0
-391 92 0
391 85 72 -9 -177 -92 0
-392 -126 0
-392 22 0
-392 91 0
-392 -47 0
-392 155 0
392 126 -22 -91 47 -155 0
-393 -55 0
-393 63 0
-393 -21 0
-393 133 0
-393 -73 0
393 55 -63 21 -133 73 0
-394 155 0
-394 -78 0
-394 185 0
-394 -125 0
-394 -26 0
394 -155 78 -185 125 26 0
-395 -147 0
-395 -94 0
-395 -31 0
-395 -169 0
-395 91 0
395 147 94 31 169 -91 0
391 392 393 394 395 0
-396 -188 0
-396 -176 0
-396 80 0
-396 39 0
-396 164 0
396 188 176 -80 -39 -164 0
-397 -149 0
-397 -173 0
-397 -81 0
-397 26 0
-397 46 0
397 149 173 81 -26 -46 0
-398 -176 0
-398 67 0
-398 2 0
-398 -38 0
-398 110 0
398 176 -67 -2 38 -110 0
-399 -105 0
-399 97 0
-399 18 0
-399 159 0
-399 95 0
399 105 -97 -18 -159 -95 0
-400 114 0
-400 -15 0
-400 -9 0
-400 13 0
-400 -79 0
400 -114 15 9 -13 79 0
396 397 398 399 400 0
-401 25 0
-401 -60 0
-401 16 0
-401 1 0
-401 40 0
401 -25 60 -16 -1 -40 0
-402 149 0
-402 75 0
-402 -22 0
-402 3 0
-402 48 0
402 -149 -75 22 -3 -48 0
-403 -118 0
-403 -156 0
-403 -55 0
-403 8 0
-403 -159 0
403 118 156 55 -8 159 0
-404 123 0
-404 97 0
-404 -76 0
-404 -32 0
-404 190 0
404 -123 -97 76 32 -190 0
-405 85 0
-405 -24 0
-405 170 0
-405 -1 0
-405 -100 0
405 -85 24 -170 1 100 0
401 402 403 404 405 0
-406 101 0
-406 -54 0
-406 -89 0
-406 17 0
-406 10 0
406 -101 54 89 -17 -10 0
-407 -22 0
-407 -149 0
-407 49 0
-407 134 0
-407 72 0
407 22 149 -49 -134 -72 0
-408 92 0
-408 -74 0
-408 -118 0
-408 -102 0
-408 -105 0
408 -92 74 118 102 105 0
-409 -160 0
-409 32 0
-409 -101 0
-409 98 0
-409 144 0
409 160 -32 101 -98 -144 0
-410 121 0
-410 93 0
-410 -141 0
-410 -23 0
-410 -91 0
410 -121 -93 141 23 91 0
406 407 408 409 410 0
-411 -106 0
-411 80 0
-411 -36 0
-411 22 0
-411 105 0
411 106 -80 36 -22 -105 0
-412 99 0
-412 54 0
-412 -27 0
-412 149 0
-412 126 0
412 -99 -54 27 -149 -126 0
-413 -78 0
-413 93 0
-413 -148 0
-413 142 0
-413 -131 0
413 78 -93 148 -142 131 0
-414 178 0
-414 -69 0
-414 -143 0
-414 132 0
-414 118 0
414 -178 69 143 -132 -118 0
-415 -32 0
-415 131 0
-415 118 0
-415 35 0
-415 66 0
415 32 -131 -118 -35 -66 0
411 412 413 414 415 0
-416 -141 0
-416 101 0
-416 -125 0
-416 -23 0
-416 -22 0
416 141 -101 125 23 22 0
-417 -1 0
-417 83 0
-417 73 0
-417 -99 0
-417 174 0
417 1 -83 -73 99 -174 0
-418 99 0
-418 -67 0
-418 -161 0
-418 148 0
-418 -146 0
418 -99 67 161 -148 146 0
-419 71 0
-419 149 0
-419 -99 0
-419 -116 0
-419 123 0
419 -71 -149 99 116 -123 0
-420 -81 0
-420 -82 0
-420 97 0
-420 30 0
-420 -48 0
420 81 82 -97 -30 48 0
416 417 418 419 420 0
-421 -183 0
-421 8 0
-421 -14 0
-421 129 0
-421 -126 0
421 183 -8 14 -129 126 0
-422 44 0
-422 38 0
-422 80 0
-422 -42 0
-422 131 0
422 -44 -38 -80 42 -131 0
-423 172 0
-423 33 0
-423 95 0
-423 -180 0
-423 158 0
423 -172 -33 -95 180 -158 0
-424 -50 0
-424 154 0
-424 -172 0
-424 37 0
-424 -11 0
424 50 -154 172 -37 11 0
-425 152 0
-425 -68 0
-425 172 0
-425 135 0
-425 168 0
425 -152 68 -172 -135 -168 0
421 422 423 424 425 0
-426 130 0
-426 138 0
-426 -182 0
-426 108 0
-426 151 0
426 -130 -138 182 -108 -151 0
-427 -37 0
-427 133 0
-427 -131 0
-427 -52 0
-427 -150 0
427 37 -133 131 52 150 0
-428 149 0
-428 4 0
-428 -135 0
-428 -119 0
-428 182 0
428 -149 -4 135 119 -182 0
-429 -151 0
-429 158 0
-429 -174 0
-429 66 0
-429 42 0
429 151 -158 174 -66 -42 0
-430 170 0
-430 109 0
-430 163 0
-430 -131 0
-430 -133 0
430 -170 -109 -163 131 133 0
426 427 428 429 430 0
